SECTION Graph
Nodes 82
Edges 81

E 1 8 296
E 1 10 288
E 1 44 297
E 1 68 300
E 2 17 296
E 2 30 298
E 2 169 200
E 3 39 286
E 3 42 298
E 3 76 297
E 4 49 295
E 4 63 301
E 5 42 293
E 6 18 292
E 6 21 298
E 6 54 294
E 7 26 299
E 7 32 293
E 7 77 299
E 8 48 296
E 8 56 304
E 8 57 298
E 9 15 297
E 9 41 300
E 10 11 301
E 10 27 301
E 10 43 300
E 12 26 300
E 13 17 298
E 13 54 294
E 14 15 296
E 15 19 296
E 16 62 294
E 17 59 302
E 19 51 302
E 19 58 299
E 19 67 301
E 20 22 310
E 21 25 289
E 21 34 294
E 22 51 301
E 23 55 301
E 24 32 302
E 25 60 300
E 26 61 299
E 27 38 300
E 27 59 296
E 27 74 289
E 28 65 310
E 28 74 299
E 29 31 296
E 31 58 301
E 33 76 298
E 33 184 193
E 34 64 297
E 34 72 305
E 35 62 298
E 35 79 299
E 36 45 294
E 37 184 199
E 40 46 299
E 43 55 299
E 43 75 305
E 44 47 298
E 45 63 302
E 45 71 297
E 46 79 299
E 50 52 291
E 50 76 295
E 51 69 299
E 53 72 296
E 57 76 295
E 58 73 300
E 58 77 295
E 62 66 296
E 63 67 298
E 66 68 297
E 67 80 302
E 70 71 298
E 71 76 299
E 78 169 192
END
SECTION Terminals
T 1
T 2
T 3
T 4
T 5
T 6
T 7
T 8
T 9
T 10
T 11
T 12
T 13
T 14
T 15
T 16
T 17
T 18
T 19
T 20
T 21
T 22
T 23
T 24
T 25
T 26
T 27
T 28
T 29
T 30
T 31
T 32
T 33
T 34
T 35
T 36
T 37
T 38
T 39
T 40
T 41
T 42
T 43
T 44
T 45
T 46
T 47
T 48
T 49
T 50
T 51
T 52
T 53
T 54
T 55
T 56
T 57
T 58
T 59
T 60
T 61
T 62
T 63
T 64
T 65
T 66
T 67
T 68
T 69
T 70
T 71
T 72
T 73
T 74
T 75
T 76
T 77
T 78
T 79
T 80
END
SECTION Cost
23721
END
